lp_solve/benchmarks/adpcm.lp
Maximize

168 dSta_0 + 32 d0_72 + 1 d1_2.v0 + 1 d1_2.v1 + 1 d1_3.v0 + 1 d1_3.v1 + 1 d2_3.v0 + 1 d2_3.v1 + 1 d3_4.v0 + 1 d3_4.v1 + 4 d3_5.v0 + 4 d3_5.v1 + 4 d4_5.v0 + 4 d4_5.v1 + 3 d5_6.v0 + 3 d5_6.v1 + 3 d5_7.v0 + 3 d5_7.v1 + 3 d6_7.v0 + 3 d6_7.v1 + 3 d7_8.v0 + 3 d7_8.v1 + 3 d7_9.v0 + 3 d7_9.v1 + 3 d8_9.v0 + 3 d8_9.v1 + 2 d9_10.v0 + 2 d9_10.v1 + 1 d9_11.v0 + 1 d9_11.v1 + 1 d10_11.v0 + 1 d10_11.v1 + 2 d11_12.v0 + 2 d11_12.v1 + 1 d11_13.v0 + 1 d11_13.v1 + 2 d12_14.v0 + 2 d12_14.v1 + 2 d13_14.v0 + 2 d13_14.v1 + 2 d14_15.v0 + 2 d14_15.v1 + 2 d14_16.v0 + 2 d14_16.v1 + 2 d15_18.v0 + 2 d15_18.v1 + 1 d16_17.v0 + 1 d16_17.v1 + 2 d16_18.v0 + 2 d16_18.v1 + 2 d17_18.v0 + 2 d17_18.v1 + 1 d18_19.v0 + 1 d18_19.v1 + 2 d18_20.v0 + 2 d18_20.v1 + 2 d19_20.v0 + 2 d19_20.v1 + 1 d20_21.v0 + 1 d20_21.v1 + 1 d20_22.v0 + 1 d20_22.v1 + 1 d21_22.v0 + 1 d21_22.v1 + 3 d22_23.v0 + 3 d22_23.v1 + 34 d22_24.v0 + 34 d22_24.v1 + 3 d23_25.v0 + 3 d23_25.v1 + 3 d24_25.v0 + 3 d24_25.v1 + 35 d25_26.v0 + 35 d25_26.v1 + 36 d25_1.v0 + 6 d25_1.v1 + 31 d26_27 + 137 d26_28 + 108 d27_28 + 1 d28_51 + 2 d29_30.v0 + 2 d29_30.v1 + 36 d29_31.v0 + 6 d29_31.v1 + 37 d30_32.v0 + 7 d30_32.v1 + 37 d31_32.v0 + 7 d31_32.v1 + 1 d32_33.v0 + 1 d32_33.v1 + 2 d32_34.v0 + 2 d32_34.v1 + 2 d33_34.v0 + 2 d33_34.v1 + 1 d34_35.v0 + 1 d34_35.v1 + 5 d34_36.v0 + 5 d34_36.v1 + 5 d35_36.v0 + 5 d35_36.v1 + 1 d36_37.v0 + 1 d36_37.v1 + 2 d36_38.v0 + 2 d36_38.v1 + 2 d37_38.v0 + 2 d37_38.v1 + 1 d38_39.v0 + 1 d38_39.v1 + 2 d38_40.v0 + 2 d38_40.v1 + 2 d39_40.v0 + 2 d39_40.v1 + 1 d40_41.v0 + 1 d40_41.v1 + 1 d40_42.v0 + 1 d40_42.v1 + 1 d41_42.v0 + 1 d41_42.v1 + 2 d42_43.v0 + 2 d42_43.v1 + 1 d42_44.v0 + 1 d42_44.v1 + 2 d43_45.v0 + 2 d43_45.v1 + 2 d44_45.v0 + 2 d44_45.v1 + 2 d45_46.v0 + 2 d45_46.v1 + 2 d45_47.v0 + 2 d45_47.v1 + 35 d46_49.v0 + 35 d46_49.v1 + 1 d47_48.v0 + 1 d47_48.v1 + 35 d47_49.v0 + 35 d47_49.v1 + 35 d48_49.v0 + 35 d48_49.v1 + 35 d49_50.v0 + 35 d49_50.v1 + 1 d49_29.v0 + 1 d49_29.v1 + 32 d51_52 + 66 d51_53 + 97 d52_54 + 96 d53_54 + 1 d54_55 + 2 d54_56 + 2 d55_56 + 30 d56_57 + 64 d56_58 + 64 d57_58 + 1 d58_59 + 31 d58_60 + 31 d59_60 + 1 d60_61 + 2 d60_62 + 2 d61_62 + 30 d62_63 + 30 d62_64 + 31 d63_64 + 2 d64_65 + 31 d64_66 + 32 d65_67 + 32 d66_67 + 31 d67_68 + 32 d67_69 + 65 d68_71 + 1 d69_70 + 65 d69_71 + 65 d70_71 + 1 d71_29 + 35 d71_50 + 30 d72_73 + 1 d72_74 + 1 d73_74 + 1 d74_75 + 34 d74_76 + 33 d75_76 + 32 d76_77 + 32 d76_78 + 31 d77_78 + 3 d78_79 + 33 d78_80 + 33 d79_80 + 31 d80_81 + 1 d80_82 + 1 d81_82 + 2 d82_83 + 31 d82_84 + 2 d83_85 + 2 d84_85 + 31 d85_86 + 32 d85_87 + 32 d86_89 + 1 d87_88 + 32 d87_89 + 32 d88_89 + 1 d89_90 + 31 d89_91 + 31 d90_91 + 1 d91_92 + 1 d91_93 + 1 d92_93 + 32 d93_94 + 94 d93_95 + 62 d94_96 + 61 d95_96 + 36 d96_1 + 35 d96_26


Subject to


\ === tcfg constraints ===
dSta_0 = 1
b0 - d0_72 = 0
b0 - dSta_0 = 0
b1 - d1_2 - d1_3 = 0
b1 - d25_1 - d96_1 = 0
b2 - d2_3 = 0
b2 - d1_2 = 0
b3 - d3_4 - d3_5 = 0
b3 - d1_3 - d2_3 = 0
b4 - d4_5 = 0
b4 - d3_4 = 0
b5 - d5_6 - d5_7 = 0
b5 - d3_5 - d4_5 = 0
b6 - d6_7 = 0
b6 - d5_6 = 0
b7 - d7_8 - d7_9 = 0
b7 - d5_7 - d6_7 = 0
b8 - d8_9 = 0
b8 - d7_8 = 0
b9 - d9_10 - d9_11 = 0
b9 - d7_9 - d8_9 = 0
b10 - d10_11 = 0
b10 - d9_10 = 0
b11 - d11_12 - d11_13 = 0
b11 - d9_11 - d10_11 = 0
b12 - d12_14 = 0
b12 - d11_12 = 0
b13 - d13_14 = 0
b13 - d11_13 = 0
b14 - d14_15 - d14_16 = 0
b14 - d12_14 - d13_14 = 0
b15 - d15_18 = 0
b15 - d14_15 = 0
b16 - d16_17 - d16_18 = 0
b16 - d14_16 = 0
b17 - d17_18 = 0
b17 - d16_17 = 0
b18 - d18_19 - d18_20 = 0
b18 - d15_18 - d16_18 - d17_18 = 0
b19 - d19_20 = 0
b19 - d18_19 = 0
b20 - d20_21 - d20_22 = 0
b20 - d18_20 - d19_20 = 0
b21 - d21_22 = 0
b21 - d20_21 = 0
b22 - d22_23 - d22_24 = 0
b22 - d20_22 - d21_22 = 0
b23 - d23_25 = 0
b23 - d22_23 = 0
b24 - d24_25 = 0
b24 - d22_24 = 0
b25 - d25_26 - d25_1 = 0
b25 - d23_25 - d24_25 = 0
b26 - d26_27 - d26_28 = 0
b26 - d25_26 - d96_26 = 0
b27 - d27_28 = 0
b27 - d26_27 = 0
b28 - d28_51 = 0
b28 - d26_28 - d27_28 = 0
b29 - d29_30 - d29_31 = 0
b29 - d49_29 - d71_29 = 0
b30 - d30_32 = 0
b30 - d29_30 = 0
b31 - d31_32 = 0
b31 - d29_31 = 0
b32 - d32_33 - d32_34 = 0
b32 - d30_32 - d31_32 = 0
b33 - d33_34 = 0
b33 - d32_33 = 0
b34 - d34_35 - d34_36 = 0
b34 - d32_34 - d33_34 = 0
b35 - d35_36 = 0
b35 - d34_35 = 0
b36 - d36_37 - d36_38 = 0
b36 - d34_36 - d35_36 = 0
b37 - d37_38 = 0
b37 - d36_37 = 0
b38 - d38_39 - d38_40 = 0
b38 - d36_38 - d37_38 = 0
b39 - d39_40 = 0
b39 - d38_39 = 0
b40 - d40_41 - d40_42 = 0
b40 - d38_40 - d39_40 = 0
b41 - d41_42 = 0
b41 - d40_41 = 0
b42 - d42_43 - d42_44 = 0
b42 - d40_42 - d41_42 = 0
b43 - d43_45 = 0
b43 - d42_43 = 0
b44 - d44_45 = 0
b44 - d42_44 = 0
b45 - d45_46 - d45_47 = 0
b45 - d43_45 - d44_45 = 0
b46 - d46_49 = 0
b46 - d45_46 = 0
b47 - d47_48 - d47_49 = 0
b47 - d45_47 = 0
b48 - d48_49 = 0
b48 - d47_48 = 0
b49 - d49_50 - d49_29 = 0
b49 - d46_49 - d47_49 - d48_49 = 0
b50 - d49_50 - d71_50 = 0
b51 - d51_52 - d51_53 = 0
b51 - d28_51 = 0
b52 - d52_54 = 0
b52 - d51_52 = 0
b53 - d53_54 = 0
b53 - d51_53 = 0
b54 - d54_55 - d54_56 = 0
b54 - d52_54 - d53_54 = 0
b55 - d55_56 = 0
b55 - d54_55 = 0
b56 - d56_57 - d56_58 = 0
b56 - d54_56 - d55_56 = 0
b57 - d57_58 = 0
b57 - d56_57 = 0
b58 - d58_59 - d58_60 = 0
b58 - d56_58 - d57_58 = 0
b59 - d59_60 = 0
b59 - d58_59 = 0
b60 - d60_61 - d60_62 = 0
b60 - d58_60 - d59_60 = 0
b61 - d61_62 = 0
b61 - d60_61 = 0
b62 - d62_63 - d62_64 = 0
b62 - d60_62 - d61_62 = 0
b63 - d63_64 = 0
b63 - d62_63 = 0
b64 - d64_65 - d64_66 = 0
b64 - d62_64 - d63_64 = 0
b65 - d65_67 = 0
b65 - d64_65 = 0
b66 - d66_67 = 0
b66 - d64_66 = 0
b67 - d67_68 - d67_69 = 0
b67 - d65_67 - d66_67 = 0
b68 - d68_71 = 0
b68 - d67_68 = 0
b69 - d69_70 - d69_71 = 0
b69 - d67_69 = 0
b70 - d70_71 = 0
b70 - d69_70 = 0
b71 - d71_29 - d71_50 = 0
b71 - d68_71 - d69_71 - d70_71 = 0
b72 - d72_73 - d72_74 = 0
b72 - d0_72 = 0
b73 - d73_74 = 0
b73 - d72_73 = 0
b74 - d74_75 - d74_76 = 0
b74 - d72_74 - d73_74 = 0
b75 - d75_76 = 0
b75 - d74_75 = 0
b76 - d76_77 - d76_78 = 0
b76 - d74_76 - d75_76 = 0
b77 - d77_78 = 0
b77 - d76_77 = 0
b78 - d78_79 - d78_80 = 0
b78 - d76_78 - d77_78 = 0
b79 - d79_80 = 0
b79 - d78_79 = 0
b80 - d80_81 - d80_82 = 0
b80 - d78_80 - d79_80 = 0
b81 - d81_82 = 0
b81 - d80_81 = 0
b82 - d82_83 - d82_84 = 0
b82 - d80_82 - d81_82 = 0
b83 - d83_85 = 0
b83 - d82_83 = 0
b84 - d84_85 = 0
b84 - d82_84 = 0
b85 - d85_86 - d85_87 = 0
b85 - d83_85 - d84_85 = 0
b86 - d86_89 = 0
b86 - d85_86 = 0
b87 - d87_88 - d87_89 = 0
b87 - d85_87 = 0
b88 - d88_89 = 0
b88 - d87_88 = 0
b89 - d89_90 - d89_91 = 0
b89 - d86_89 - d87_89 - d88_89 = 0
b90 - d90_91 = 0
b90 - d89_90 = 0
b91 - d91_92 - d91_93 = 0
b91 - d89_91 - d90_91 = 0
b92 - d92_93 = 0
b92 - d91_92 = 0
b93 - d93_94 - d93_95 = 0
b93 - d91_93 - d92_93 = 0
b94 - d94_96 = 0
b94 - d93_94 = 0
b95 - d95_96 = 0
b95 - d93_95 = 0
b96 - d96_1 - d96_26 = 0
b96 - d94_96 - d95_96 = 0


\ === context constraints ===

\(a)
d1_2 - d1_2.v0 - d1_2.v1 = 0
d1_3 - d1_3.v0 - d1_3.v1 = 0
d2_3 - d2_3.v0 - d2_3.v1 = 0
d3_4 - d3_4.v0 - d3_4.v1 = 0
d3_5 - d3_5.v0 - d3_5.v1 = 0
d4_5 - d4_5.v0 - d4_5.v1 = 0
d5_6 - d5_6.v0 - d5_6.v1 = 0
d5_7 - d5_7.v0 - d5_7.v1 = 0
d6_7 - d6_7.v0 - d6_7.v1 = 0
d7_8 - d7_8.v0 - d7_8.v1 = 0
d7_9 - d7_9.v0 - d7_9.v1 = 0
d8_9 - d8_9.v0 - d8_9.v1 = 0
d9_10 - d9_10.v0 - d9_10.v1 = 0
d9_11 - d9_11.v0 - d9_11.v1 = 0
d10_11 - d10_11.v0 - d10_11.v1 = 0
d11_12 - d11_12.v0 - d11_12.v1 = 0
d11_13 - d11_13.v0 - d11_13.v1 = 0
d12_14 - d12_14.v0 - d12_14.v1 = 0
d13_14 - d13_14.v0 - d13_14.v1 = 0
d14_15 - d14_15.v0 - d14_15.v1 = 0
d14_16 - d14_16.v0 - d14_16.v1 = 0
d15_18 - d15_18.v0 - d15_18.v1 = 0
d16_17 - d16_17.v0 - d16_17.v1 = 0
d16_18 - d16_18.v0 - d16_18.v1 = 0
d17_18 - d17_18.v0 - d17_18.v1 = 0
d18_19 - d18_19.v0 - d18_19.v1 = 0
d18_20 - d18_20.v0 - d18_20.v1 = 0
d19_20 - d19_20.v0 - d19_20.v1 = 0
d20_21 - d20_21.v0 - d20_21.v1 = 0
d20_22 - d20_22.v0 - d20_22.v1 = 0
d21_22 - d21_22.v0 - d21_22.v1 = 0
d22_23 - d22_23.v0 - d22_23.v1 = 0
d22_24 - d22_24.v0 - d22_24.v1 = 0
d23_25 - d23_25.v0 - d23_25.v1 = 0
d24_25 - d24_25.v0 - d24_25.v1 = 0
d25_26 - d25_26.v0 - d25_26.v1 = 0
d25_1 - d25_1.v0 - d25_1.v1 = 0
d29_30 - d29_30.v0 - d29_30.v1 = 0
d29_31 - d29_31.v0 - d29_31.v1 = 0
d30_32 - d30_32.v0 - d30_32.v1 = 0
d31_32 - d31_32.v0 - d31_32.v1 = 0
d32_33 - d32_33.v0 - d32_33.v1 = 0
d32_34 - d32_34.v0 - d32_34.v1 = 0
d33_34 - d33_34.v0 - d33_34.v1 = 0
d34_35 - d34_35.v0 - d34_35.v1 = 0
d34_36 - d34_36.v0 - d34_36.v1 = 0
d35_36 - d35_36.v0 - d35_36.v1 = 0
d36_37 - d36_37.v0 - d36_37.v1 = 0
d36_38 - d36_38.v0 - d36_38.v1 = 0
d37_38 - d37_38.v0 - d37_38.v1 = 0
d38_39 - d38_39.v0 - d38_39.v1 = 0
d38_40 - d38_40.v0 - d38_40.v1 = 0
d39_40 - d39_40.v0 - d39_40.v1 = 0
d40_41 - d40_41.v0 - d40_41.v1 = 0
d40_42 - d40_42.v0 - d40_42.v1 = 0
d41_42 - d41_42.v0 - d41_42.v1 = 0
d42_43 - d42_43.v0 - d42_43.v1 = 0
d42_44 - d42_44.v0 - d42_44.v1 = 0
d43_45 - d43_45.v0 - d43_45.v1 = 0
d44_45 - d44_45.v0 - d44_45.v1 = 0
d45_46 - d45_46.v0 - d45_46.v1 = 0
d45_47 - d45_47.v0 - d45_47.v1 = 0
d46_49 - d46_49.v0 - d46_49.v1 = 0
d47_48 - d47_48.v0 - d47_48.v1 = 0
d47_49 - d47_49.v0 - d47_49.v1 = 0
d48_49 - d48_49.v0 - d48_49.v1 = 0
d49_50 - d49_50.v0 - d49_50.v1 = 0
d49_29 - d49_29.v0 - d49_29.v1 = 0

\(b)
b1.v0 - d1_2.v0 - d1_3.v0 = 0
b1.v1 - d1_2.v1 - d1_3.v1 = 0
b2.v0 - d2_3.v0 = 0
b2.v1 - d2_3.v1 = 0
b3.v0 - d3_4.v0 - d3_5.v0 = 0
b3.v1 - d3_4.v1 - d3_5.v1 = 0
b4.v0 - d4_5.v0 = 0
b4.v1 - d4_5.v1 = 0
b5.v0 - d5_6.v0 - d5_7.v0 = 0
b5.v1 - d5_6.v1 - d5_7.v1 = 0
b6.v0 - d6_7.v0 = 0
b6.v1 - d6_7.v1 = 0
b7.v0 - d7_8.v0 - d7_9.v0 = 0
b7.v1 - d7_8.v1 - d7_9.v1 = 0
b8.v0 - d8_9.v0 = 0
b8.v1 - d8_9.v1 = 0
b9.v0 - d9_10.v0 - d9_11.v0 = 0
b9.v1 - d9_10.v1 - d9_11.v1 = 0
b10.v0 - d10_11.v0 = 0
b10.v1 - d10_11.v1 = 0
b11.v0 - d11_12.v0 - d11_13.v0 = 0
b11.v1 - d11_12.v1 - d11_13.v1 = 0
b12.v0 - d12_14.v0 = 0
b12.v1 - d12_14.v1 = 0
b13.v0 - d13_14.v0 = 0
b13.v1 - d13_14.v1 = 0
b14.v0 - d14_15.v0 - d14_16.v0 = 0
b14.v1 - d14_15.v1 - d14_16.v1 = 0
b15.v0 - d15_18.v0 = 0
b15.v1 - d15_18.v1 = 0
b16.v0 - d16_17.v0 - d16_18.v0 = 0
b16.v1 - d16_17.v1 - d16_18.v1 = 0
b17.v0 - d17_18.v0 = 0
b17.v1 - d17_18.v1 = 0
b18.v0 - d18_19.v0 - d18_20.v0 = 0
b18.v1 - d18_19.v1 - d18_20.v1 = 0
b19.v0 - d19_20.v0 = 0
b19.v1 - d19_20.v1 = 0
b20.v0 - d20_21.v0 - d20_22.v0 = 0
b20.v1 - d20_21.v1 - d20_22.v1 = 0
b21.v0 - d21_22.v0 = 0
b21.v1 - d21_22.v1 = 0
b22.v0 - d22_23.v0 - d22_24.v0 = 0
b22.v1 - d22_23.v1 - d22_24.v1 = 0
b23.v0 - d23_25.v0 = 0
b23.v1 - d23_25.v1 = 0
b24.v0 - d24_25.v0 = 0
b24.v1 - d24_25.v1 = 0
b25.v0 - d25_26.v0 - d25_1.v0 = 0
b25.v1 - d25_26.v1 - d25_1.v1 = 0
b29.v0 - d29_30.v0 - d29_31.v0 = 0
b29.v1 - d29_30.v1 - d29_31.v1 = 0
b30.v0 - d30_32.v0 = 0
b30.v1 - d30_32.v1 = 0
b31.v0 - d31_32.v0 = 0
b31.v1 - d31_32.v1 = 0
b32.v0 - d32_33.v0 - d32_34.v0 = 0
b32.v1 - d32_33.v1 - d32_34.v1 = 0
b33.v0 - d33_34.v0 = 0
b33.v1 - d33_34.v1 = 0
b34.v0 - d34_35.v0 - d34_36.v0 = 0
b34.v1 - d34_35.v1 - d34_36.v1 = 0
b35.v0 - d35_36.v0 = 0
b35.v1 - d35_36.v1 = 0
b36.v0 - d36_37.v0 - d36_38.v0 = 0
b36.v1 - d36_37.v1 - d36_38.v1 = 0
b37.v0 - d37_38.v0 = 0
b37.v1 - d37_38.v1 = 0
b38.v0 - d38_39.v0 - d38_40.v0 = 0
b38.v1 - d38_39.v1 - d38_40.v1 = 0
b39.v0 - d39_40.v0 = 0
b39.v1 - d39_40.v1 = 0
b40.v0 - d40_41.v0 - d40_42.v0 = 0
b40.v1 - d40_41.v1 - d40_42.v1 = 0
b41.v0 - d41_42.v0 = 0
b41.v1 - d41_42.v1 = 0
b42.v0 - d42_43.v0 - d42_44.v0 = 0
b42.v1 - d42_43.v1 - d42_44.v1 = 0
b43.v0 - d43_45.v0 = 0
b43.v1 - d43_45.v1 = 0
b44.v0 - d44_45.v0 = 0
b44.v1 - d44_45.v1 = 0
b45.v0 - d45_46.v0 - d45_47.v0 = 0
b45.v1 - d45_46.v1 - d45_47.v1 = 0
b46.v0 - d46_49.v0 = 0
b46.v1 - d46_49.v1 = 0
b47.v0 - d47_48.v0 - d47_49.v0 = 0
b47.v1 - d47_48.v1 - d47_49.v1 = 0
b48.v0 - d48_49.v0 = 0
b48.v1 - d48_49.v1 = 0
b49.v0 - d49_50.v0 - d49_29.v0 = 0
b49.v1 - d49_50.v1 - d49_29.v1 = 0

\(c)
b1 - b1.v0 - b1.v1 = 0
b2 - b2.v0 - b2.v1 = 0
b3 - b3.v0 - b3.v1 = 0
b4 - b4.v0 - b4.v1 = 0
b5 - b5.v0 - b5.v1 = 0
b6 - b6.v0 - b6.v1 = 0
b7 - b7.v0 - b7.v1 = 0
b8 - b8.v0 - b8.v1 = 0
b9 - b9.v0 - b9.v1 = 0
b10 - b10.v0 - b10.v1 = 0
b11 - b11.v0 - b11.v1 = 0
b12 - b12.v0 - b12.v1 = 0
b13 - b13.v0 - b13.v1 = 0
b14 - b14.v0 - b14.v1 = 0
b15 - b15.v0 - b15.v1 = 0
b16 - b16.v0 - b16.v1 = 0
b17 - b17.v0 - b17.v1 = 0
b18 - b18.v0 - b18.v1 = 0
b19 - b19.v0 - b19.v1 = 0
b20 - b20.v0 - b20.v1 = 0
b21 - b21.v0 - b21.v1 = 0
b22 - b22.v0 - b22.v1 = 0
b23 - b23.v0 - b23.v1 = 0
b24 - b24.v0 - b24.v1 = 0
b25 - b25.v0 - b25.v1 = 0
b29 - b29.v0 - b29.v1 = 0
b30 - b30.v0 - b30.v1 = 0
b31 - b31.v0 - b31.v1 = 0
b32 - b32.v0 - b32.v1 = 0
b33 - b33.v0 - b33.v1 = 0
b34 - b34.v0 - b34.v1 = 0
b35 - b35.v0 - b35.v1 = 0
b36 - b36.v0 - b36.v1 = 0
b37 - b37.v0 - b37.v1 = 0
b38 - b38.v0 - b38.v1 = 0
b39 - b39.v0 - b39.v1 = 0
b40 - b40.v0 - b40.v1 = 0
b41 - b41.v0 - b41.v1 = 0
b42 - b42.v0 - b42.v1 = 0
b43 - b43.v0 - b43.v1 = 0
b44 - b44.v0 - b44.v1 = 0
b45 - b45.v0 - b45.v1 = 0
b46 - b46.v0 - b46.v1 = 0
b47 - b47.v0 - b47.v1 = 0
b48 - b48.v0 - b48.v1 = 0
b49 - b49.v0 - b49.v1 = 0

\(d)
b1.v0 - d96_1 = 0
b29.v0 - d71_29 = 0

\(e)
b1.v1 - d25_1.v0 - d25_1.v1 = 0
b1.v1 - 2046 d25_1.v0 <= 0
b29.v1 - d49_29.v0 - d49_29.v1 = 0
b29.v1 - 2046 d49_29.v0 <= 0

\(f)
d25_26 - d25_26.v0 - d25_26.v1 = 0
d49_50 - d49_50.v0 - d49_50.v1 = 0

\(g)
b2.v0 - d1_2.v0 = 0
b2.v1 - d1_2.v1 = 0
b3.v0 - d1_3.v0 - d2_3.v0 = 0
b3.v1 - d1_3.v1 - d2_3.v1 = 0
b4.v0 - d3_4.v0 = 0
b4.v1 - d3_4.v1 = 0
b5.v0 - d3_5.v0 - d4_5.v0 = 0
b5.v1 - d3_5.v1 - d4_5.v1 = 0
b6.v0 - d5_6.v0 = 0
b6.v1 - d5_6.v1 = 0
b7.v0 - d5_7.v0 - d6_7.v0 = 0
b7.v1 - d5_7.v1 - d6_7.v1 = 0
b8.v0 - d7_8.v0 = 0
b8.v1 - d7_8.v1 = 0
b9.v0 - d7_9.v0 - d8_9.v0 = 0
b9.v1 - d7_9.v1 - d8_9.v1 = 0
b10.v0 - d9_10.v0 = 0
b10.v1 - d9_10.v1 = 0
b11.v0 - d9_11.v0 - d10_11.v0 = 0
b11.v1 - d9_11.v1 - d10_11.v1 = 0
b12.v0 - d11_12.v0 = 0
b12.v1 - d11_12.v1 = 0
b13.v0 - d11_13.v0 = 0
b13.v1 - d11_13.v1 = 0
b14.v0 - d12_14.v0 - d13_14.v0 = 0
b14.v1 - d12_14.v1 - d13_14.v1 = 0
b15.v0 - d14_15.v0 = 0
b15.v1 - d14_15.v1 = 0
b16.v0 - d14_16.v0 = 0
b16.v1 - d14_16.v1 = 0
b17.v0 - d16_17.v0 = 0
b17.v1 - d16_17.v1 = 0
b18.v0 - d15_18.v0 - d16_18.v0 - d17_18.v0 = 0
b18.v1 - d15_18.v1 - d16_18.v1 - d17_18.v1 = 0
b19.v0 - d18_19.v0 = 0
b19.v1 - d18_19.v1 = 0
b20.v0 - d18_20.v0 - d19_20.v0 = 0
b20.v1 - d18_20.v1 - d19_20.v1 = 0
b21.v0 - d20_21.v0 = 0
b21.v1 - d20_21.v1 = 0
b22.v0 - d20_22.v0 - d21_22.v0 = 0
b22.v1 - d20_22.v1 - d21_22.v1 = 0
b23.v0 - d22_23.v0 = 0
b23.v1 - d22_23.v1 = 0
b24.v0 - d22_24.v0 = 0
b24.v1 - d22_24.v1 = 0
b25.v0 - d23_25.v0 - d24_25.v0 = 0
b25.v1 - d23_25.v1 - d24_25.v1 = 0
b30.v0 - d29_30.v0 = 0
b30.v1 - d29_30.v1 = 0
b31.v0 - d29_31.v0 = 0
b31.v1 - d29_31.v1 = 0
b32.v0 - d30_32.v0 - d31_32.v0 = 0
b32.v1 - d30_32.v1 - d31_32.v1 = 0
b33.v0 - d32_33.v0 = 0
b33.v1 - d32_33.v1 = 0
b34.v0 - d32_34.v0 - d33_34.v0 = 0
b34.v1 - d32_34.v1 - d33_34.v1 = 0
b35.v0 - d34_35.v0 = 0
b35.v1 - d34_35.v1 = 0
b36.v0 - d34_36.v0 - d35_36.v0 = 0
b36.v1 - d34_36.v1 - d35_36.v1 = 0
b37.v0 - d36_37.v0 = 0
b37.v1 - d36_37.v1 = 0
b38.v0 - d36_38.v0 - d37_38.v0 = 0
b38.v1 - d36_38.v1 - d37_38.v1 = 0
b39.v0 - d38_39.v0 = 0
b39.v1 - d38_39.v1 = 0
b40.v0 - d38_40.v0 - d39_40.v0 = 0
b40.v1 - d38_40.v1 - d39_40.v1 = 0
b41.v0 - d40_41.v0 = 0
b41.v1 - d40_41.v1 = 0
b42.v0 - d40_42.v0 - d41_42.v0 = 0
b42.v1 - d40_42.v1 - d41_42.v1 = 0
b43.v0 - d42_43.v0 = 0
b43.v1 - d42_43.v1 = 0
b44.v0 - d42_44.v0 = 0
b44.v1 - d42_44.v1 = 0
b45.v0 - d43_45.v0 - d44_45.v0 = 0
b45.v1 - d43_45.v1 - d44_45.v1 = 0
b46.v0 - d45_46.v0 = 0
b46.v1 - d45_46.v1 = 0
b47.v0 - d45_47.v0 = 0
b47.v1 - d45_47.v1 = 0
b48.v0 - d47_48.v0 = 0
b48.v1 - d47_48.v1 = 0
b49.v0 - d46_49.v0 - d47_49.v0 - d48_49.v0 = 0
b49.v1 - d46_49.v1 - d47_49.v1 - d48_49.v1 = 0

\ === header constraints ===
b0 <= 1
b1 - 2047 b0 <= 0
b1 - 2047 d96_1 <= 0
b29 - 2047 b0 <= 0
b29 - 2047 d71_29 <= 0

Generals

Sta
b0
d0_72
b1
d1_2
d1_3
b2
d2_3
b3
d3_4
d3_5
b4
d4_5
b5
d5_6
d5_7
b6
d6_7
b7
d7_8
d7_9
b8
d8_9
b9
d9_10
d9_11
b10
d10_11
b11
d11_12
d11_13
b12
d12_14
b13
d13_14
b14
d14_15
d14_16
b15
d15_18
b16
d16_17
d16_18
b17
d17_18
b18
d18_19
d18_20
b19
d19_20
b20
d20_21
d20_22
b21
d21_22
b22
d22_23
d22_24
b23
d23_25
b24
d24_25
b25
d25_26
d25_1
b26
d26_27
d26_28
b27
d27_28
b28
d28_51
b29
d29_30
d29_31
b30
d30_32
b31
d31_32
b32
d32_33
d32_34
b33
d33_34
b34
d34_35
d34_36
b35
d35_36
b36
d36_37
d36_38
b37
d37_38
b38
d38_39
d38_40
b39
d39_40
b40
d40_41
d40_42
b41
d41_42
b42
d42_43
d42_44
b43
d43_45
b44
d44_45
b45
d45_46
d45_47
b46
d46_49
b47
d47_48
d47_49
b48
d48_49
b49
d49_50
d49_29
b50
b51
d51_52
d51_53
b52
d52_54
b53
d53_54
b54
d54_55
d54_56
b55
d55_56
b56
d56_57
d56_58
b57
d57_58
b58
d58_59
d58_60
b59
d59_60
b60
d60_61
d60_62
b61
d61_62
b62
d62_63
d62_64
b63
d63_64
b64
d64_65
d64_66
b65
d65_67
b66
d66_67
b67
d67_68
d67_69
b68
d68_71
b69
d69_70
d69_71
b70
d70_71
b71
d71_29
d71_50
b72
d72_73
d72_74
b73
d73_74
b74
d74_75
d74_76
b75
d75_76
b76
d76_77
d76_78
b77
d77_78
b78
d78_79
d78_80
b79
d79_80
b80
d80_81
d80_82
b81
d81_82
b82
d82_83
d82_84
b83
d83_85
b84
d84_85
b85
d85_86
d85_87
b86
d86_89
b87
d87_88
d87_89
b88
d88_89
b89
d89_90
d89_91
b90
d90_91
b91
d91_92
d91_93
b92
d92_93
b93
d93_94
d93_95
b94
d94_96
b95
d95_96
b96
d96_1
d96_26
b0.d0
b0.d1
b0.d2
b1.d0
b24.d0
b26.d0
b26.d1
b27.d0
b28.d0
b28.d1
b28.d2
b31.d0
b32.d0
b49.d0
b50.d0
b50.d1
b53.d0
b54.d0
b71.d0
b72.d0
b95.d0
d0_72
d1_2.v0
d1_2.v1
d1_3.v0
d1_3.v1
d2_3.v0
d2_3.v1
d3_4.v0
d3_4.v1
d3_5.v0
d3_5.v1
d4_5.v0
d4_5.v1
d5_6.v0
d5_6.v1
d5_7.v0
d5_7.v1
d6_7.v0
d6_7.v1
d7_8.v0
d7_8.v1
d7_9.v0
d7_9.v1
d8_9.v0
d8_9.v1
d9_10.v0
d9_10.v1
d9_11.v0
d9_11.v1
d10_11.v0
d10_11.v1
d11_12.v0
d11_12.v1
d11_13.v0
d11_13.v1
d12_14.v0
d12_14.v1
d13_14.v0
d13_14.v1
d14_15.v0
d14_15.v1
d14_16.v0
d14_16.v1
d15_18.v0
d15_18.v1
d16_17.v0
d16_17.v1
d16_18.v0
d16_18.v1
d17_18.v0
d17_18.v1
d18_19.v0
d18_19.v1
d18_20.v0
d18_20.v1
d19_20.v0
d19_20.v1
d20_21.v0
d20_21.v1
d20_22.v0
d20_22.v1
d21_22.v0
d21_22.v1
d22_23.v0
d22_23.v1
d22_24.v0
d22_24.v1
d23_25.v0
d23_25.v1
d24_25.v0
d24_25.v1
d25_26.v0
d25_26.v1
d25_1.v0
d25_1.v1
d26_27
d26_28
d27_28
d28_51
d29_30.v0
d29_30.v1
d29_31.v0
d29_31.v1
d30_32.v0
d30_32.v1
d31_32.v0
d31_32.v1
d32_33.v0
d32_33.v1
d32_34.v0
d32_34.v1
d33_34.v0
d33_34.v1
d34_35.v0
d34_35.v1
d34_36.v0
d34_36.v1
d35_36.v0
d35_36.v1
d36_37.v0
d36_37.v1
d36_38.v0
d36_38.v1
d37_38.v0
d37_38.v1
d38_39.v0
d38_39.v1
d38_40.v0
d38_40.v1
d39_40.v0
d39_40.v1
d40_41.v0
d40_41.v1
d40_42.v0
d40_42.v1
d41_42.v0
d41_42.v1
d42_43.v0
d42_43.v1
d42_44.v0
d42_44.v1
d43_45.v0
d43_45.v1
d44_45.v0
d44_45.v1
d45_46.v0
d45_46.v1
d45_47.v0
d45_47.v1
d46_49.v0
d46_49.v1
d47_48.v0
d47_48.v1
d47_49.v0
d47_49.v1
d48_49.v0
d48_49.v1
d49_50.v0
d49_50.v1
d49_29.v0
d49_29.v1
d51_52
d51_53
d52_54
d53_54
d54_55
d54_56
d55_56
d56_57
d56_58
d57_58
d58_59
d58_60
d59_60
d60_61
d60_62
d61_62
d62_63
d62_64
d63_64
d64_65
d64_66
d65_67
d66_67
d67_68
d67_69
d68_71
d69_70
d69_71
d70_71
d71_29
d71_50
d72_73
d72_74
d73_74
d74_75
d74_76
d75_76
d76_77
d76_78
d77_78
d78_79
d78_80
d79_80
d80_81
d80_82
d81_82
d82_83
d82_84
d83_85
d84_85
d85_86
d85_87
d86_89
d87_88
d87_89
d88_89
d89_90
d89_91
d90_91
d91_92
d91_93
d92_93
d93_94
d93_95
d94_96
d95_96
d96_1
d96_26

End
\ total_cons: 500 	total_vars: 260
