lp_solve/result/adpcm.res
set_XLI: Successfully loaded './xli_CPLEX'

Value of objective function: 312673

Actual values of the variables:
dSta_0                          1
d0_72                           1
d1_2.v0                         1
d1_2.v1                      2046
d1_3.v0                         0
d1_3.v1                         0
d2_3.v0                         1
d2_3.v1                      2046
d3_4.v0                         1
d3_4.v1                      2046
d3_5.v0                         0
d3_5.v1                         0
d4_5.v0                         1
d4_5.v1                      2046
d5_6.v0                         1
d5_6.v1                      2046
d5_7.v0                         0
d5_7.v1                         0
d6_7.v0                         1
d6_7.v1                      2046
d7_8.v0                         1
d7_8.v1                      2046
d7_9.v0                         0
d7_9.v1                         0
d8_9.v0                         1
d8_9.v1                      2046
d9_10.v0                        1
d9_10.v1                     2046
d9_11.v0                        0
d9_11.v1                        0
d10_11.v0                       1
d10_11.v1                    2046
d11_12.v0                       1
d11_12.v1                    2046
d11_13.v0                       0
d11_13.v1                       0
d12_14.v0                       1
d12_14.v1                    2046
d13_14.v0                       0
d13_14.v1                       0
d14_15.v0                       0
d14_15.v1                       0
d14_16.v0                       1
d14_16.v1                    2046
d15_18.v0                       0
d15_18.v1                       0
d16_17.v0                       1
d16_17.v1                    2046
d16_18.v0                       0
d16_18.v1                       0
d17_18.v0                       1
d17_18.v1                    2046
d18_19.v0                       1
d18_19.v1                    2046
d18_20.v0                       0
d18_20.v1                       0
d19_20.v0                       1
d19_20.v1                    2046
d20_21.v0                       1
d20_21.v1                    2046
d20_22.v0                       0
d20_22.v1                       0
d21_22.v0                       1
d21_22.v1                    2046
d22_23.v0                       0
d22_23.v1                       0
d22_24.v0                       1
d22_24.v1                    2046
d23_25.v0                       0
d23_25.v1                       0
d24_25.v0                       1
d24_25.v1                    2046
d25_26.v0                       0
d25_26.v1                       1
d25_1.v0                        1
d25_1.v1                     2045
d26_27                          1
d26_28                          0
d27_28                          1
d28_51                          1
d29_30.v0                       0
d29_30.v1                       0
d29_31.v0                       1
d29_31.v1                    2046
d30_32.v0                       0
d30_32.v1                       0
d31_32.v0                       1
d31_32.v1                    2046
d32_33.v0                       1
d32_33.v1                    2046
d32_34.v0                       0
d32_34.v1                       0
d33_34.v0                       1
d33_34.v1                    2046
d34_35.v0                       1
d34_35.v1                    2046
d34_36.v0                       0
d34_36.v1                       0
d35_36.v0                       1
d35_36.v1                    2046
d36_37.v0                       1
d36_37.v1                    2046
d36_38.v0                       0
d36_38.v1                       0
d37_38.v0                       1
d37_38.v1                    2046
d38_39.v0                       1
d38_39.v1                    2046
d38_40.v0                       0
d38_40.v1                       0
d39_40.v0                       1
d39_40.v1                    2046
d40_41.v0                       1
d40_41.v1                    2046
d40_42.v0                       0
d40_42.v1                       0
d41_42.v0                       1
d41_42.v1                    2046
d42_43.v0                       1
d42_43.v1                    2046
d42_44.v0                       0
d42_44.v1                       0
d43_45.v0                       1
d43_45.v1                    2046
d44_45.v0                       0
d44_45.v1                       0
d45_46.v0                       0
d45_46.v1                       0
d45_47.v0                       1
d45_47.v1                    2046
d46_49.v0                       0
d46_49.v1                       0
d47_48.v0                       1
d47_48.v1                    2046
d47_49.v0                       0
d47_49.v1                       0
d48_49.v0                       1
d48_49.v1                    2046
d49_50.v0                       0
d49_50.v1                       1
d49_29.v0                       1
d49_29.v1                    2045
d51_52                          0
d51_53                          1
d52_54                          0
d53_54                          1
d54_55                          1
d54_56                          0
d55_56                          1
d56_57                          1
d56_58                          0
d57_58                          1
d58_59                          1
d58_60                          0
d59_60                          1
d60_61                          1
d60_62                          0
d61_62                          1
d62_63                          1
d62_64                          0
d63_64                          1
d64_65                          0
d64_66                          1
d65_67                          0
d66_67                          1
d67_68                          0
d67_69                          1
d68_71                          0
d69_70                          1
d69_71                          0
d70_71                          1
d71_29                          1
d71_50                          0
d72_73                          1
d72_74                          0
d73_74                          1
d74_75                          0
d74_76                          1
d75_76                          0
d76_77                          1
d76_78                          0
d77_78                          1
d78_79                          1
d78_80                          0
d79_80                          1
d80_81                          1
d80_82                          0
d81_82                          1
d82_83                          0
d82_84                          1
d83_85                          0
d84_85                          1
d85_86                          0
d85_87                          1
d86_89                          0
d87_88                          1
d87_89                          0
d88_89                          1
d89_90                          1
d89_91                          0
d90_91                          1
d91_92                          1
d91_93                          0
d92_93                          1
d93_94                          0
d93_95                          1
d94_96                          0
d95_96                          1
d96_1                           1
d96_26                          0
b0                              1
b1                           2047
d1_2                         2047
d1_3                            0
d25_1                        2046
b2                           2047
d2_3                         2047
b3                           2047
d3_4                         2047
d3_5                            0
b4                           2047
d4_5                         2047
b5                           2047
d5_6                         2047
d5_7                            0
b6                           2047
d6_7                         2047
b7                           2047
d7_8                         2047
d7_9                            0
b8                           2047
d8_9                         2047
b9                           2047
d9_10                        2047
d9_11                           0
b10                          2047
d10_11                       2047
b11                          2047
d11_12                       2047
d11_13                          0
b12                          2047
d12_14                       2047
b13                             0
d13_14                          0
b14                          2047
d14_15                          0
d14_16                       2047
b15                             0
d15_18                          0
b16                          2047
d16_17                       2047
d16_18                          0
b17                          2047
d17_18                       2047
b18                          2047
d18_19                       2047
d18_20                          0
b19                          2047
d19_20                       2047
b20                          2047
d20_21                       2047
d20_22                          0
b21                          2047
d21_22                       2047
b22                          2047
d22_23                          0
d22_24                       2047
b23                             0
d23_25                          0
b24                          2047
d24_25                       2047
b25                          2047
d25_26                          1
b26                             1
b27                             1
b28                             1
b29                          2047
d29_30                          0
d29_31                       2047
d49_29                       2046
b30                             0
d30_32                          0
b31                          2047
d31_32                       2047
b32                          2047
d32_33                       2047
d32_34                          0
b33                          2047
d33_34                       2047
b34                          2047
d34_35                       2047
d34_36                          0
b35                          2047
d35_36                       2047
b36                          2047
d36_37                       2047
d36_38                          0
b37                          2047
d37_38                       2047
b38                          2047
d38_39                       2047
d38_40                          0
b39                          2047
d39_40                       2047
b40                          2047
d40_41                       2047
d40_42                          0
b41                          2047
d41_42                       2047
b42                          2047
d42_43                       2047
d42_44                          0
b43                          2047
d43_45                       2047
b44                             0
d44_45                          0
b45                          2047
d45_46                          0
d45_47                       2047
b46                             0
d46_49                          0
b47                          2047
d47_48                       2047
d47_49                          0
b48                          2047
d48_49                       2047
b49                          2047
d49_50                          1
b50                             1
b51                             1
b52                             0
b53                             1
b54                             1
b55                             1
b56                             1
b57                             1
b58                             1
b59                             1
b60                             1
b61                             1
b62                             1
b63                             1
b64                             1
b65                             0
b66                             1
b67                             1
b68                             0
b69                             1
b70                             1
b71                             1
b72                             1
b73                             1
b74                             1
b75                             0
b76                             1
b77                             1
b78                             1
b79                             1
b80                             1
b81                             1
b82                             1
b83                             0
b84                             1
b85                             1
b86                             0
b87                             1
b88                             1
b89                             1
b90                             1
b91                             1
b92                             1
b93                             1
b94                             0
b95                             1
b96                             1
b1.v0                           1
b1.v1                        2046
b2.v0                           1
b2.v1                        2046
b3.v0                           1
b3.v1                        2046
b4.v0                           1
b4.v1                        2046
b5.v0                           1
b5.v1                        2046
b6.v0                           1
b6.v1                        2046
b7.v0                           1
b7.v1                        2046
b8.v0                           1
b8.v1                        2046
b9.v0                           1
b9.v1                        2046
b10.v0                          1
b10.v1                       2046
b11.v0                          1
b11.v1                       2046
b12.v0                          1
b12.v1                       2046
b13.v0                          0
b13.v1                          0
b14.v0                          1
b14.v1                       2046
b15.v0                          0
b15.v1                          0
b16.v0                          1
b16.v1                       2046
b17.v0                          1
b17.v1                       2046
b18.v0                          1
b18.v1                       2046
b19.v0                          1
b19.v1                       2046
b20.v0                          1
b20.v1                       2046
b21.v0                          1
b21.v1                       2046
b22.v0                          1
b22.v1                       2046
b23.v0                          0
b23.v1                          0
b24.v0                          1
b24.v1                       2046
b25.v0                          1
b25.v1                       2046
b29.v0                          1
b29.v1                       2046
b30.v0                          0
b30.v1                          0
b31.v0                          1
b31.v1                       2046
b32.v0                          1
b32.v1                       2046
b33.v0                          1
b33.v1                       2046
b34.v0                          1
b34.v1                       2046
b35.v0                          1
b35.v1                       2046
b36.v0                          1
b36.v1                       2046
b37.v0                          1
b37.v1                       2046
b38.v0                          1
b38.v1                       2046
b39.v0                          1
b39.v1                       2046
b40.v0                          1
b40.v1                       2046
b41.v0                          1
b41.v1                       2046
b42.v0                          1
b42.v1                       2046
b43.v0                          1
b43.v1                       2046
b44.v0                          0
b44.v1                          0
b45.v0                          1
b45.v1                       2046
b46.v0                          0
b46.v1                          0
b47.v0                          1
b47.v1                       2046
b48.v0                          1
b48.v1                       2046
b49.v0                          1
b49.v1                       2046
